Input: forum-14.prec25.dzn
============================================================
Total Runtime: 2.0616 seconds
Input parsing: 0.0036 seconds
Constraint building: 1.1291 seconds
MaxSAT solving: 0.2511 seconds
============================================================

Total variables: 324136
Total clauses: 689279
MaxSAT found with cost: N/A
NO SOLUTION FOUND
